words_hard_train/4989.qaiger
aag 96 24 0 1 72
2
4
8
12
18
22
26
34
40
42
46
48
54
56
60
62
68
70
78
80
86
88
172
174
192
6 2 4
10 8 4
14 12 4
16 11 15
20 16 19
24 20 23
28 24 27
30 29 4
32 7 31
36 32 35
38 36 4
44 40 42
50 46 48
52 45 51
58 54 56
64 60 62
66 59 65
72 68 70
74 66 73
76 52 74
82 78 80
84 76 83
90 86 88
92 84 91
94 39 92
96 44 50
98 96 75
100 99 77
102 17 18
104 103 21
106 67 72
108 107 75
110 104 108
112 101 111
114 58 13
116 114 64
118 117 67
120 15 8
122 14 9
124 121 123
126 115 65
128 124 127
130 118 129
132 105 109
134 130 133
136 112 135
138 77 82
140 139 85
142 136 141
144 137 140
146 30 2
148 31 3
150 147 149
152 145 151
154 143 153
156 85 90
158 157 93
160 33 34
162 161 37
164 159 163
166 154 165
168 158 162
170 167 169
176 172 174
178 171 176
180 95 179
182 170 177
184 38 93
186 183 185
188 180 187
190 94 178
192 189 191
i0 2 y1[5]
i1 2 y1[7]
i2 2 y1[1]
i3 2 y1[0]
i4 2 y1[2]
i5 2 y1[4]
i6 2 y1[3]
i7 2 y1[6]
i8 2 y2[4]
i9 1 x2[4]
i10 2 y2[3]
i11 1 x2[3]
i12 2 y2[0]
i13 1 x2[0]
i14 2 y2[1]
i15 1 x2[1]
i16 2 y2[2]
i17 1 x2[2]
i18 2 y2[5]
i19 1 x2[5]
i20 2 y2[6]
i21 1 x2[6]
i22 2 y2[7]
i23 1 x2[7]
o0 bv[0]
c
simplified
  >=
    or
      -232
      abs
        2 y1
    and
      1 x2
      2 y2
