words_hard_train/4989.qaiger.qdimacs
p cnf 96 217
a 35 40 44 21 87 24 28 31 0
e 1 2 3 4 5 6 7 8 9 10 11 12 13 14 15 16 17 18 19 20 22 23 25 26 27 29 30 32 33 34 36 37 38 39 41 42 43 45 46 47 48 49 50 51 52 53 54 55 56 57 58 59 60 61 62 63 64 65 66 67 68 69 70 71 72 73 74 75 76 77 78 79 80 81 82 83 84 85 86 88 89 90 91 92 93 94 95 96 0
-1 -2 3 0
1 -3 0
2 -3 0
-4 -2 5 0
4 -5 0
2 -5 0
-6 -2 7 0
6 -7 0
2 -7 0
5 7 8 0
-5 -8 0
-7 -8 0
-8 9 10 0
8 -10 0
-9 -10 0
-10 11 12 0
10 -12 0
-11 -12 0
-12 13 14 0
12 -14 0
-13 -14 0
14 -2 15 0
-14 -15 0
2 -15 0
3 15 16 0
-3 -16 0
-15 -16 0
-16 17 18 0
16 -18 0
-17 -18 0
-18 -2 19 0
18 -19 0
2 -19 0
-20 -21 22 0
20 -22 0
21 -22 0
-23 -24 25 0
23 -25 0
24 -25 0
22 25 26 0
-22 -26 0
-25 -26 0
-27 -28 29 0
27 -29 0
28 -29 0
-30 -31 32 0
30 -32 0
31 -32 0
29 32 33 0
-29 -33 0
-32 -33 0
-34 -35 36 0
34 -36 0
35 -36 0
-33 36 37 0
33 -37 0
-36 -37 0
-26 -37 38 0
26 -38 0
37 -38 0
-39 -40 41 0
39 -41 0
40 -41 0
-38 41 42 0
38 -42 0
-41 -42 0
-43 -44 45 0
43 -45 0
44 -45 0
-42 45 46 0
42 -46 0
-45 -46 0
19 -46 47 0
-19 -47 0
46 -47 0
-22 -25 48 0
22 -48 0
25 -48 0
-48 37 49 0
48 -49 0
-37 -49 0
49 38 50 0
-49 -50 0
-38 -50 0
8 -9 51 0
-8 -51 0
9 -51 0
51 10 52 0
-51 -52 0
-10 -52 0
33 -36 53 0
-33 -53 0
36 -53 0
53 37 54 0
-53 -54 0
-37 -54 0
-52 -54 55 0
52 -55 0
54 -55 0
50 55 56 0
-50 -56 0
-55 -56 0
-29 6 57 0
29 -57 0
-6 -57 0
-57 -32 58 0
57 -58 0
32 -58 0
58 33 59 0
-58 -59 0
-33 -59 0
7 -4 60 0
-7 -60 0
4 -60 0
-7 4 61 0
7 -61 0
-4 -61 0
60 61 62 0
-60 -62 0
-61 -62 0
57 32 63 0
-57 -63 0
-32 -63 0
-62 63 64 0
62 -64 0
-63 -64 0
-59 64 65 0
59 -65 0
-64 -65 0
52 54 66 0
-52 -66 0
-54 -66 0
-65 66 67 0
65 -67 0
-66 -67 0
-56 67 68 0
56 -68 0
-67 -68 0
38 -41 69 0
-38 -69 0
41 -69 0
69 42 70 0
-69 -70 0
-42 -70 0
-68 70 71 0
68 -71 0
-70 -71 0
68 -70 72 0
-68 -72 0
70 -72 0
-15 -1 73 0
15 -73 0
1 -73 0
15 1 74 0
-15 -74 0
-1 -74 0
73 74 75 0
-73 -75 0
-74 -75 0
72 75 76 0
-72 -76 0
-75 -76 0
71 76 77 0
-71 -77 0
-76 -77 0
42 -45 78 0
-42 -78 0
45 -78 0
78 46 79 0
-78 -79 0
-46 -79 0
16 -17 80 0
-16 -80 0
17 -80 0
80 18 81 0
-80 -81 0
-18 -81 0
79 81 82 0
-79 -82 0
-81 -82 0
-77 82 83 0
77 -83 0
-82 -83 0
-79 -81 84 0
79 -84 0
81 -84 0
83 84 85 0
-83 -85 0
-84 -85 0
-86 -87 88 0
86 -88 0
87 -88 0
85 -88 89 0
-85 -89 0
88 -89 0
47 89 90 0
-47 -90 0
-89 -90 0
-85 88 91 0
85 -91 0
-88 -91 0
-19 46 92 0
19 -92 0
-46 -92 0
91 92 93 0
-91 -93 0
-92 -93 0
-90 93 94 0
90 -94 0
-93 -94 0
-47 -89 95 0
47 -95 0
89 -95 0
94 95 96 0
-94 -96 0
-95 -96 0
96 0
